Welcome to the CBC MILP Solver 
Version: 2.10.7 
Build Date: Feb 14 2022 

command line - cbc inputs/new_no_tr/order/jump_3_45_down_left_input.lp sec 1800 solve solu solutions/new_no_tr/jump_3_45_down_left_input.lp (default strategy 1)
seconds was changed from 1e+100 to 1800
Continuous objective value is 31502.5 - 5.18 seconds
Cgl0002I 163 variables fixed
Cgl0003I 0 fixed, 22 tightened bounds, 1048 strengthened rows, 0 substitutions
Cgl0003I 0 fixed, 7 tightened bounds, 166 strengthened rows, 0 substitutions
Cgl0003I 0 fixed, 4 tightened bounds, 50 strengthened rows, 0 substitutions
Cgl0003I 0 fixed, 0 tightened bounds, 3 strengthened rows, 0 substitutions
Cgl0004I processed model has 7014 rows, 2164 columns (2164 integer (2118 of which binary)) and 23846 elements
Cutoff increment increased from 1e-05 to 0.9999
Cbc0045I 1 integer variables out of 2164 objects (2164 integer) have cost of 1 - high priority
Cbc0045I branch on satisfied Y create fake objective Y random cost Y
Cbc0038I Initial state - 1331 integers unsatisfied sum - 452.057
Cbc0038I Pass   1: (13.59 seconds) suminf.  236.14673 (1273) obj. 75911.1 iterations 5044
Cbc0038I Pass   2: (14.38 seconds) suminf.  165.94834 (1136) obj. 78297.7 iterations 1788
Cbc0038I Pass   3: (14.71 seconds) suminf.  154.17495 (1134) obj. 81717.2 iterations 751
Cbc0038I Pass   4: (15.12 seconds) suminf.  129.48547 (1137) obj. 79853.7 iterations 921
Cbc0038I Pass   5: (15.48 seconds) suminf.  121.86606 (1118) obj. 79348.6 iterations 837
Cbc0038I Pass   6: (15.64 seconds) suminf.  121.65032 (1158) obj. 79052.3 iterations 276
Cbc0038I Pass   7: (15.71 seconds) suminf.  120.90577 (1130) obj. 79430.3 iterations 110
Cbc0038I Pass   8: (15.84 seconds) suminf.  122.17349 (1117) obj. 79474.2 iterations 221
Cbc0038I Pass   9: (15.96 seconds) suminf.  119.47310 (1129) obj. 79544.9 iterations 205
Cbc0038I Pass  10: (15.98 seconds) suminf.  119.59649 (1094) obj. 79534 iterations 26
Cbc0038I Pass  11: (16.07 seconds) suminf.  122.71820 (1088) obj. 79686.8 iterations 163
Cbc0038I Pass  12: (16.16 seconds) suminf.  120.03625 (1089) obj. 79524.2 iterations 158
Cbc0038I Pass  13: (16.22 seconds) suminf.  119.96733 (1088) obj. 79565.4 iterations 99
Cbc0038I Pass  14: (16.25 seconds) suminf.  119.68580 (1087) obj. 79571.2 iterations 49
Cbc0038I Pass  15: (16.34 seconds) suminf.  120.58863 (1128) obj. 79670.2 iterations 167
Cbc0038I Pass  16: (16.38 seconds) suminf.  119.05857 (1127) obj. 79580 iterations 59
Cbc0038I Pass  17: (16.53 seconds) suminf.  123.39310 (1083) obj. 79734 iterations 264
Cbc0038I Pass  18: (16.68 seconds) suminf.  120.36089 (1097) obj. 79648.5 iterations 269
Cbc0038I Pass  19: (16.75 seconds) suminf.  120.02486 (1097) obj. 79046.4 iterations 125
Cbc0038I Pass  20: (16.91 seconds) suminf.  121.41339 (1088) obj. 79639.2 iterations 269
Cbc0038I Pass  21: (16.97 seconds) suminf.  120.49651 (1095) obj. 79603.6 iterations 112
Cbc0038I Pass  22: (17.12 seconds) suminf.  121.47135 (1083) obj. 79666.1 iterations 255
Cbc0038I Pass  23: (17.24 seconds) suminf.  119.97367 (1098) obj. 79238.3 iterations 213
Cbc0038I Pass  24: (17.32 seconds) suminf.  120.02766 (1122) obj. 79329.6 iterations 132
Cbc0038I Pass  25: (17.54 seconds) suminf.  122.78146 (1059) obj. 79678.1 iterations 458
Cbc0038I Pass  26: (17.67 seconds) suminf.  121.01479 (1091) obj. 79710.3 iterations 226
Cbc0038I Pass  27: (17.78 seconds) suminf.  120.35087 (1096) obj. 79207.5 iterations 194
Cbc0038I Pass  28: (18.00 seconds) suminf.  117.49079 (1049) obj. 79319.8 iterations 444
Cbc0038I Pass  29: (18.15 seconds) suminf.  120.46954 (1070) obj. 79918.2 iterations 256
Cbc0038I Pass  30: (18.26 seconds) suminf.  118.24034 (1092) obj. 79833.7 iterations 197
Cbc0038I Pass  31: (18.28 seconds) suminf.  118.32512 (1091) obj. 79822.6 iterations 22
Cbc0038I Pass  32: (18.49 seconds) suminf.  120.36306 (1065) obj. 79906.3 iterations 440
Cbc0038I Pass  33: (18.63 seconds) suminf.  119.03955 (1094) obj. 80100.2 iterations 239
Cbc0038I Pass  34: (18.68 seconds) suminf.  118.55245 (1111) obj. 79927 iterations 78
Cbc0038I Pass  35: (18.89 seconds) suminf.  117.49079 (1049) obj. 79319.8 iterations 431
Cbc0038I Pass  36: (19.03 seconds) suminf.  120.46954 (1070) obj. 79918.2 iterations 270
Cbc0038I Pass  37: (19.14 seconds) suminf.  118.24034 (1092) obj. 79833.7 iterations 211
Cbc0038I Pass  38: (19.16 seconds) suminf.  118.32512 (1091) obj. 79822.6 iterations 19
Cbc0038I Pass  39: (19.33 seconds) suminf.  119.96283 (1071) obj. 79474.9 iterations 339
Cbc0038I Pass  40: (19.45 seconds) suminf.  118.12849 (1101) obj. 79793.4 iterations 211
Cbc0038I Pass  41: (19.61 seconds) suminf.  122.62156 (1063) obj. 79974.4 iterations 322
Cbc0038I Pass  42: (19.70 seconds) suminf.  120.15379 (1082) obj. 80046.1 iterations 150
Cbc0038I Pass  43: (19.79 seconds) suminf.  118.56137 (1105) obj. 80050.5 iterations 174
Cbc0038I Pass  44: (19.81 seconds) suminf.  118.30452 (1096) obj. 80029.7 iterations 19
Cbc0038I Pass  45: (20.06 seconds) suminf.  117.64728 (1067) obj. 79282.3 iterations 574
Cbc0038I Pass  46: (20.23 seconds) suminf.  117.96684 (1076) obj. 78968.1 iterations 369
Cbc0038I Pass  47: (20.26 seconds) suminf.  117.39860 (1084) obj. 79099.1 iterations 53
Cbc0038I Pass  48: (20.52 seconds) suminf.  121.42159 (1048) obj. 79317.6 iterations 595
Cbc0038I Pass  49: (20.77 seconds) suminf.  119.36574 (1075) obj. 79551.8 iterations 492
Cbc0038I Pass  50: (20.83 seconds) suminf.  118.74830 (1073) obj. 79601.6 iterations 109
Cbc0038I Pass  51: (20.98 seconds) suminf.  120.39652 (1068) obj. 79384.5 iterations 269
Cbc0038I Pass  52: (21.10 seconds) suminf.  117.85278 (1076) obj. 79337.1 iterations 222
Cbc0038I Pass  53: (21.19 seconds) suminf.  117.27151 (1069) obj. 79563.7 iterations 170
Cbc0038I Pass  54: (21.27 seconds) suminf.  118.24025 (1063) obj. 79705.4 iterations 151
Cbc0038I Pass  55: (21.30 seconds) suminf.  118.25485 (1077) obj. 79648.5 iterations 51
Cbc0038I Pass  56: (21.45 seconds) suminf.  121.15638 (1052) obj. 79716.2 iterations 265
Cbc0038I Pass  57: (21.57 seconds) suminf.  119.32736 (1084) obj. 79747.5 iterations 219
Cbc0038I Pass  58: (21.63 seconds) suminf.  118.55138 (1078) obj. 79820.6 iterations 89
Cbc0038I Pass  59: (21.86 seconds) suminf.  119.67272 (1050) obj. 79056.3 iterations 514
Cbc0038I Pass  60: (22.04 seconds) suminf.  118.70149 (1070) obj. 79503.1 iterations 378
Cbc0038I Pass  61: (22.12 seconds) suminf.  118.25485 (1077) obj. 79648.5 iterations 148
Cbc0038I Pass  62: (22.31 seconds) suminf.  122.93272 (1055) obj. 79646.4 iterations 419
Cbc0038I Pass  63: (22.43 seconds) suminf.  119.32736 (1084) obj. 79747.5 iterations 205
Cbc0038I Pass  64: (22.48 seconds) suminf.  118.55138 (1078) obj. 79820.6 iterations 87
Cbc0038I Pass  65: (22.64 seconds) suminf.  120.08029 (1070) obj. 79370.4 iterations 302
Cbc0038I Pass  66: (22.73 seconds) suminf.  117.72090 (1058) obj. 79751.9 iterations 186
Cbc0038I Pass  67: (22.94 seconds) suminf.  121.60177 (1060) obj. 79618.1 iterations 454
Cbc0038I Pass  68: (23.12 seconds) suminf.  119.15056 (1078) obj. 79749.3 iterations 382
Cbc0038I Pass  69: (23.19 seconds) suminf.  118.49906 (1082) obj. 79768.8 iterations 132
Cbc0038I Pass  70: (23.36 seconds) suminf.  118.92332 (1043) obj. 79756.1 iterations 333
Cbc0038I Pass  71: (23.51 seconds) suminf.  118.71758 (1072) obj. 79496 iterations 283
Cbc0038I Pass  72: (23.54 seconds) suminf.  118.88415 (1075) obj. 79558.8 iterations 31
Cbc0038I Pass  73: (23.70 seconds) suminf.  118.77928 (1058) obj. 79709.1 iterations 306
Cbc0038I Pass  74: (23.79 seconds) suminf.  118.30861 (1064) obj. 79853.3 iterations 165
Cbc0038I Pass  75: (23.84 seconds) suminf.  117.85910 (1073) obj. 79765.8 iterations 77
Cbc0038I Pass  76: (24.07 seconds) suminf.  119.56980 (1030) obj. 78861.3 iterations 528
Cbc0038I Pass  77: (24.24 seconds) suminf.  120.44781 (1081) obj. 79592.6 iterations 332
Cbc0038I Pass  78: (24.30 seconds) suminf.  119.58112 (1082) obj. 79689 iterations 108
Cbc0038I Pass  79: (24.40 seconds) suminf.  119.48451 (1075) obj. 79061.4 iterations 167
Cbc0038I Pass  80: (24.43 seconds) suminf.  118.86038 (1080) obj. 79047.9 iterations 45
Cbc0038I Pass  81: (24.58 seconds) suminf.  118.63297 (1062) obj. 79559.5 iterations 296
Cbc0038I Pass  82: (24.73 seconds) suminf.  118.53038 (1082) obj. 79504.6 iterations 272
Cbc0038I Pass  83: (24.78 seconds) suminf.  117.04160 (1085) obj. 79670.8 iterations 92
Cbc0038I Pass  84: (24.93 seconds) suminf.  119.85800 (1066) obj. 79381.2 iterations 292
Cbc0038I Pass  85: (25.08 seconds) suminf.  118.97539 (1078) obj. 79084.4 iterations 284
Cbc0038I Pass  86: (25.14 seconds) suminf.  118.27729 (1088) obj. 79162.5 iterations 103
Cbc0038I Pass  87: (25.32 seconds) suminf.  119.15230 (1056) obj. 79424.8 iterations 358
Cbc0038I Pass  88: (25.45 seconds) suminf.  120.57081 (1059) obj. 79677.3 iterations 221
Cbc0038I Pass  89: (25.52 seconds) suminf.  119.05389 (1075) obj. 79626.9 iterations 121
Cbc0038I Pass  90: (25.56 seconds) suminf.  118.31372 (1081) obj. 79634.2 iterations 62
Cbc0038I Pass  91: (25.71 seconds) suminf.  121.32937 (1071) obj. 79049.2 iterations 271
Cbc0038I Pass  92: (25.86 seconds) suminf.  118.73114 (1086) obj. 79139.4 iterations 268
Cbc0038I Pass  93: (25.90 seconds) suminf.  118.27729 (1088) obj. 79162.5 iterations 71
Cbc0038I Pass  94: (26.07 seconds) suminf.  120.74887 (1065) obj. 79503.6 iterations 357
Cbc0038I Pass  95: (26.17 seconds) suminf.  119.05389 (1075) obj. 79626.9 iterations 165
Cbc0038I Pass  96: (26.21 seconds) suminf.  118.31372 (1081) obj. 79634.2 iterations 72
Cbc0038I Pass  97: (26.39 seconds) suminf.  120.07087 (1076) obj. 79033.6 iterations 363
Cbc0038I Pass  98: (26.57 seconds) suminf.  118.73114 (1086) obj. 79139.4 iterations 377
Cbc0038I Pass  99: (26.61 seconds) suminf.  118.27729 (1088) obj. 79162.5 iterations 83
Cbc0038I Pass 100: (27.53 seconds) suminf.  145.20221 (1066) obj. 85505.2 iterations 2360
Cbc0038I No solution found this major pass
Cbc0038I Before mini branch and bound, 273 integers at bound fixed and 0 continuous
Cbc0038I Full problem 7014 rows 2164 columns, reduced to 6424 rows 1885 columns - too large
Cbc0038I Mini branch and bound did not improve solution (27.71 seconds)
Cbc0038I After 27.71 seconds - Feasibility pump exiting - took 16.44 seconds
Cbc0031I 25 added rows had average density of 10.68
Cbc0013I At root node, 25 cuts changed objective from 31530.092 to 33310.013 in 10 passes
Cbc0014I Cut generator 0 (Probing) - 9 row cuts average 3.0 elements, 0 column cuts (0 active)  in 0.168 seconds - new frequency is 1
Cbc0014I Cut generator 1 (Gomory) - 32 row cuts average 11.3 elements, 0 column cuts (0 active)  in 1.673 seconds - new frequency is 1
Cbc0014I Cut generator 2 (Knapsack) - 0 row cuts average 0.0 elements, 0 column cuts (0 active)  in 0.025 seconds - new frequency is -100
Cbc0014I Cut generator 3 (Clique) - 0 row cuts average 0.0 elements, 0 column cuts (0 active)  in 0.069 seconds - new frequency is -100
Cbc0014I Cut generator 4 (MixedIntegerRounding2) - 0 row cuts average 0.0 elements, 0 column cuts (0 active)  in 0.033 seconds - new frequency is -100
Cbc0014I Cut generator 5 (FlowCover) - 0 row cuts average 0.0 elements, 0 column cuts (0 active)  in 0.020 seconds - new frequency is -100
Cbc0014I Cut generator 6 (TwoMirCuts) - 78 row cuts average 19.9 elements, 0 column cuts (0 active)  in 0.760 seconds - new frequency is 1
Cbc0014I Cut generator 7 (ZeroHalf) - 25 row cuts average 32.7 elements, 0 column cuts (0 active)  in 1.503 seconds - new frequency is 1
Cbc0010I After 0 nodes, 1 on tree, 1e+50 best solution, best possible 33310.013 (52.02 seconds)
Cbc0010I After 100 nodes, 8 on tree, 1e+50 best solution, best possible 33954.689 (322.38 seconds)
Cbc0010I After 200 nodes, 45 on tree, 1e+50 best solution, best possible 33954.689 (598.00 seconds)
Cbc0010I After 300 nodes, 56 on tree, 1e+50 best solution, best possible 33954.689 (902.99 seconds)
Cbc0010I After 400 nodes, 77 on tree, 1e+50 best solution, best possible 33954.689 (1135.82 seconds)
Cbc0010I After 500 nodes, 128 on tree, 1e+50 best solution, best possible 33954.689 (1382.57 seconds)
Cbc0020I Exiting on maximum time
Cbc0005I Partial search - best objective 1e+50 (best possible 33954.689), took 2650484 iterations and 581 nodes (1794.10 seconds)
Cbc0032I Strong branching done 4206 times (354337 iterations), fathomed 54 nodes and fixed 440 variables
Cbc0035I Maximum depth 296, 0 variables fixed on reduced cost
Cuts at root node changed objective from 31530.1 to 33310
Probing was tried 151 times and created 412 cuts of which 0 were active after adding rounds of cuts (0.746 seconds)
Gomory was tried 144 times and created 265 cuts of which 0 were active after adding rounds of cuts (4.705 seconds)
Knapsack was tried 10 times and created 0 cuts of which 0 were active after adding rounds of cuts (0.025 seconds)
Clique was tried 10 times and created 0 cuts of which 0 were active after adding rounds of cuts (0.069 seconds)
MixedIntegerRounding2 was tried 10 times and created 0 cuts of which 0 were active after adding rounds of cuts (0.033 seconds)
FlowCover was tried 10 times and created 0 cuts of which 0 were active after adding rounds of cuts (0.020 seconds)
TwoMirCuts was tried 144 times and created 2369 cuts of which 0 were active after adding rounds of cuts (2.168 seconds)
ZeroHalf was tried 144 times and created 368 cuts of which 0 were active after adding rounds of cuts (19.729 seconds)

Result - Stopped on time limit

No feasible solution found
Lower bound:                    33954.689
Enumerated nodes:               581
Total iterations:               2650484
Time (CPU seconds):             1794.10
Time (Wallclock seconds):       1795.31

Total time (CPU seconds):       1794.14   (Wallclock seconds):       1795.36

